p cnf 106 326
c t mc
-4 -2 0
-4 3 0
2 -3 4 0
5 1 0
5 4 0
-1 -4 -5 0
-6 -7 -8 0
6 7 -8 0
-6 7 8 0
6 -7 8 0
-11 9 0
-11 -10 0
-9 10 11 0
1 -12 0
-1 -12 0
-13 12 0
-13 -6 0
-12 6 13 0
14 -11 0
14 -13 0
11 13 -14 0
-8 -14 -15 0
8 14 -15 0
-8 14 15 0
8 -14 15 0
5 -15 -16 0
-5 15 -16 0
5 15 16 0
-5 -15 16 0
-18 17 0
-18 -10 0
-17 10 18 0
21 19 0
21 20 0
-19 -20 -21 0
-21 -1 -22 0
21 1 -22 0
-21 1 22 0
21 -1 22 0
23 -21 -24 0
-23 21 -24 0
23 21 24 0
-23 -21 24 0
-22 24 -25 0
22 -24 -25 0
-22 -24 25 0
22 24 25 0
28 -26 0
28 -27 0
26 27 -28 0
-28 -29 -30 0
28 29 -30 0
-28 29 30 0
28 -29 30 0
-31 -17 0
-31 20 0
17 -20 31 0
33 -32 0
33 -17 0
32 17 -33 0
31 33 -34 0
-31 -33 -34 0
31 -33 34 0
-31 33 34 0
35 30 0
35 34 0
-30 -34 -35 0
-25 35 -36 0
25 -35 -36 0
-25 -35 36 0
25 35 36 0
37 18 0
37 36 0
-18 -36 -37 0
-38 16 0
-38 -37 0
-16 37 38 0
-9 -17 -39 0
9 17 -39 0
-9 17 39 0
9 -17 39 0
40 -7 0
40 -27 0
7 27 -40 0
-41 10 0
-41 40 0
-10 -40 41 0
-42 43 -44 0
42 -43 -44 0
-42 -43 44 0
42 43 44 0
-10 44 -45 0
10 -44 -45 0
-10 -44 45 0
10 44 45 0
-46 -41 0
-46 45 0
41 -45 46 0
-48 -47 0
-48 -23 0
47 23 48 0
20 17 -49 0
-20 -17 -49 0
20 -17 49 0
-20 17 49 0
-50 -49 0
-50 47 0
49 -47 50 0
-51 -23 0
-51 -28 0
23 28 51 0
-43 52 -53 0
43 -52 -53 0
-43 -52 53 0
43 52 53 0
51 -53 -54 0
-51 53 -54 0
51 53 54 0
-51 -53 54 0
-55 -50 0
-55 -54 0
50 54 55 0
56 48 0
56 55 0
-48 -55 -56 0
57 46 0
57 -56 0
-46 56 -57 0
-58 -39 0
-58 -57 0
39 57 58 0
-59 38 0
-59 58 0
-38 -58 59 0
-61 -42 0
-61 -60 0
42 60 61 0
-62 -9 0
-62 27 0
9 -27 62 0
63 -62 0
63 43 0
62 -43 -63 0
-64 61 0
-64 63 0
-61 -63 64 0
65 -1 0
65 17 0
1 -17 -65 0
65 1 -66 0
-65 -1 -66 0
65 -1 66 0
-65 1 66 0
67 64 0
67 66 0
-64 -66 -67 0
-68 59 0
-68 -67 0
-59 67 68 0
69 7 0
69 -31 0
-7 31 -69 0
-70 -40 0
-70 -69 0
40 69 70 0
26 -71 0
-26 -71 0
-2 -6 -72 0
2 6 -72 0
-2 6 72 0
2 -6 72 0
-73 71 0
-73 -72 0
-71 72 73 0
74 -33 0
74 -73 0
33 73 -74 0
75 -70 0
75 74 0
70 -74 -75 0
-76 53 0
-76 3 0
-53 -3 76 0
77 -75 0
77 -76 0
75 76 -77 0
-79 -78 0
-79 -7 0
78 7 79 0
80 77 0
80 -79 0
-77 79 -80 0
-81 7 0
-81 27 0
-7 -27 81 0
82 71 0
82 65 0
-71 -65 -82 0
-81 82 -83 0
81 -82 -83 0
-81 -82 83 0
81 82 83 0
80 83 -84 0
-80 -83 -84 0
80 -83 84 0
-80 83 84 0
-73 53 -85 0
73 -53 -85 0
-73 -53 85 0
73 53 85 0
86 44 0
86 -85 0
-44 85 -86 0
84 -86 -87 0
-84 86 -87 0
84 86 87 0
-84 -86 87 0
65 17 -88 0
-65 -17 -88 0
65 -17 88 0
-65 17 88 0
89 -87 0
89 -88 0
87 88 -89 0
90 28 0
90 -10 0
-28 10 -90 0
-28 2 -91 0
28 -2 -91 0
-28 -2 91 0
28 2 91 0
-92 42 0
-92 -85 0
-42 85 92 0
93 91 0
93 92 0
-91 -92 -93 0
-6 -47 -94 0
6 47 -94 0
-6 47 94 0
6 -47 94 0
95 -93 0
95 94 0
93 -94 -95 0
96 -90 0
96 -95 0
90 95 -96 0
-97 -22 0
-97 -62 0
22 62 97 0
21 53 -98 0
-21 -53 -98 0
21 -53 98 0
-21 53 98 0
-99 -20 0
-99 -98 0
20 98 99 0
-100 97 0
-100 99 0
-97 -99 100 0
-101 -52 0
-101 -26 0
52 26 101 0
-102 -72 0
-102 101 0
72 -101 102 0
-100 102 -103 0
100 -102 -103 0
-100 -102 103 0
100 102 103 0
-104 96 0
-104 103 0
-96 -103 104 0
105 89 0
105 104 0
-89 -104 -105 0
-68 105 -106 0
68 -105 -106 0
-68 -105 106 0
68 105 106 0
47 100 -79 0
-34 3 33 91 0
-34 32 -39 -26 -72 -23 -40 0
-105 -102 -3 82 32 10 -53 -39 0
-102 -89 70 -10 -87 0
-41 29 18 53 59 77 -91 0
28 -42 -44 70 72 -47 73 66 43 0
-20 -30 -57 98 0
51 -6 -38 -12 85 0
-66 -5 -8 0
71 63 -40 97 67 -11 -35 -15 0
-10 -1 9 91 -23 -89 -76 73 32 0
-35 -102 28 92 100 -74 88 -66 10 60 0
49 24 -66 -14 -20 81 0
-59 -94 70 7 0
11 78 -83 0
-92 -48 53 84 18 21 91 -26 3 0
104 -52 58 0
-30 42 82 12 -17 0
52 -15 -81 -92 -22 51 82 -64 0
-50 77 -97 0
84 -30 5 -10 0
9 -51 -61 81 86 41 -3 0
92 -53 8 61 11 -16 0
-78 -75 21 -84 -56 -60 38 -99 0
73 -101 -98 21 0
-2 55 37 94 -7 0
-15 -94 7 -5 0
-93 105 78 0
-89 -25 99 -20 14 95 -18 -56 -103 0
-59 25 -14 -8 -20 -26 -16 37 9 0
-4 -11 103 0
83 48 79 59 4 -62 102 6 17 0
-91 85 31 22 98 103 0
23 60 41 0
-47 -43 -42 -70 -7 -97 0
-2 30 68 104 -59 0
-35 16 -69 -97 -18 0
35 83 30 -33 49 63 0
-52 41 -83 0
-4 58 5 0
13 -87 -90 4 14 -40 -98 97 0
28 9 -10 90 6 0
-55 72 24 -104 -51 -17 0
30 -22 88 -76 11 32 -89 41 -40 0
106 0
